 Code  2731
 Dimension, Fixed Cost
   100        3000
 Facility, Client, Transportation Cost
     1        8           3
     1       16           3
     1       20           1
     1       45           3
     1       63           3
     1       66           1
     1       72           0
     1       75           0
     1       90           3
     1       99           2
     2        4           1
     2        8           3
     2       16           4
     2       17           0
     2       18           4
     2       26           4
     2       37           0
     2       54           0
     2       89           2
     2       93           2
     3        4           3
     3        6           4
     3       14           1
     3       17           1
     3       22           0
     3       40           2
     3       43           4
     3       46           2
     3       49           1
     3       79           4
     4        1           3
     4       32           3
     4       35           0
     4       42           1
     4       47           4
     4       61           4
     4       65           0
     4       67           3
     4       79           1
     4       93           0
     5        2           2
     5       17           3
     5       23           0
     5       38           3
     5       56           4
     5       74           1
     5       76           4
     5       81           0
     5       94           3
     5       97           4
     6        4           4
     6        9           0
     6       17           1
     6       18           2
     6       20           2
     6       24           3
     6       29           0
     6       35           2
     6       64           2
     6       89           0
     7        2           3
     7       17           2
     7       21           3
     7       23           2
     7       27           4
     7       38           4
     7       44           1
     7       45           1
     7       50           3
     7       73           1
     8        1           2
     8       17           0
     8       21           1
     8       23           3
     8       25           4
     8       36           2
     8       48           1
     8       64           2
     8       71           4
     8       93           1
     9        3           3
     9       26           4
     9       28           3
     9       31           0
     9       45           2
     9       59           0
     9       70           0
     9       74           1
     9       75           3
     9       84           0
    10        8           2
    10       23           3
    10       24           4
    10       43           1
    10       44           1
    10       48           1
    10       53           3
    10       57           0
    10       58           3
    10       87           0
    11        2           2
    11       21           3
    11       23           4
    11       26           4
    11       36           1
    11       46           3
    11       48           0
    11       55           3
    11       76           4
    11       94           2
    12        3           0
    12        5           1
    12        6           0
    12       15           1
    12       30           4
    12       45           3
    12       85           2
    12       88           1
    12       92           4
    12       98           4
    13        6           2
    13       21           3
    13       43           2
    13       49           3
    13       52           3
    13       54           3
    13       64           0
    13       84           3
    13       91           0
    13       94           2
    14        5           0
    14        6           0
    14        7           2
    14       13           0
    14       26           3
    14       36           1
    14       40           4
    14       65           2
    14       82           0
    14       86           4
    15        8           2
    15       16           4
    15       19           4
    15       52           4
    15       60           0
    15       61           1
    15       71           0
    15       86           3
    15       87           4
    15       93           3
    16        1           2
    16        4           2
    16       14           4
    16       19           1
    16       21           0
    16       24           2
    16       28           1
    16       30           4
    16       39           1
    16       41           3
    17        4           2
    17        5           1
    17       20           2
    17       21           1
    17       33           4
    17       53           1
    17       64           1
    17       86           2
    17       90           1
    17       92           0
    18        1           4
    18        2           4
    18       36           0
    18       42           0
    18       57           4
    18       61           0
    18       65           1
    18       71           4
    18       78           0
    18       98           1
    19        7           4
    19       24           2
    19       33           3
    19       35           3
    19       37           0
    19       64           4
    19       79           2
    19       84           2
    19       90           1
    19      100           1
    20        7           1
    20       23           1
    20       33           4
    20       41           1
    20       51           0
    20       54           1
    20       64           4
    20       69           0
    20       72           4
    20       85           4
    21        4           2
    21        7           0
    21        8           2
    21       12           3
    21       16           1
    21       28           2
    21       32           2
    21       47           1
    21       51           4
    21       66           2
    22       10           4
    22       12           3
    22       19           4
    22       23           2
    22       30           2
    22       31           2
    22       35           0
    22       38           1
    22       53           2
    22       61           1
    23        1           1
    23       17           2
    23       29           3
    23       36           2
    23       37           2
    23       60           0
    23       66           0
    23       71           0
    23       84           0
    23       89           4
    24        9           3
    24       21           3
    24       40           4
    24       48           0
    24       55           1
    24       57           0
    24       68           0
    24       69           1
    24       70           4
    24       88           1
    25        5           3
    25       11           2
    25       27           4
    25       49           3
    25       51           2
    25       55           4
    25       68           1
    25       70           3
    25       80           0
    25       90           2
    26        3           0
    26        4           0
    26        5           2
    26       20           3
    26       23           3
    26       24           4
    26       35           3
    26       54           2
    26       73           1
    26       82           0
    27        3           2
    27       19           3
    27       21           3
    27       26           2
    27       32           4
    27       41           3
    27       46           1
    27       60           1
    27       66           2
    27       93           2
    28        5           3
    28       19           1
    28       24           0
    28       31           2
    28       51           3
    28       72           2
    28       78           2
    28       82           1
    28       86           4
    28       89           0
    29       17           4
    29       30           1
    29       31           1
    29       36           0
    29       44           2
    29       46           0
    29       60           4
    29       76           1
    29       82           1
    29       92           0
    30       14           0
    30       21           4
    30       30           0
    30       31           3
    30       36           4
    30       49           2
    30       71           4
    30       74           4
    30       92           0
    30       94           4
    31        6           2
    31       12           4
    31       44           1
    31       46           4
    31       53           1
    31       66           2
    31       70           3
    31       71           2
    31       76           2
    31       89           0
    32       11           4
    32       30           3
    32       34           2
    32       49           1
    32       52           2
    32       56           4
    32       63           1
    32       83           2
    32       90           3
    32       98           4
    33       35           1
    33       40           2
    33       52           4
    33       53           4
    33       61           1
    33       65           3
    33       70           3
    33       71           1
    33       74           1
    33       93           0
    34        9           3
    34       25           3
    34       29           1
    34       39           3
    34       51           4
    34       63           0
    34       67           2
    34       68           1
    34       87           4
    34       94           3
    35        5           3
    35       11           0
    35       12           4
    35       13           2
    35       34           4
    35       47           1
    35       61           2
    35       73           3
    35       74           3
    35       75           4
    36        6           4
    36        8           0
    36       12           4
    36       13           4
    36       19           4
    36       29           1
    36       65           0
    36       81           3
    36       85           4
    36       88           0
    37        4           4
    37       25           0
    37       26           2
    37       39           0
    37       42           0
    37       47           2
    37       54           2
    37       66           2
    37       78           1
    37       89           4
    38       11           1
    38       25           1
    38       26           3
    38       32           1
    38       42           3
    38       51           0
    38       62           2
    38       63           0
    38       72           1
    38       83           4
    39        4           3
    39        6           4
    39       17           0
    39       25           4
    39       33           0
    39       37           2
    39       48           4
    39       50           4
    39       63           2
    39       89           3
    40        2           3
    40       17           3
    40       24           1
    40       29           2
    40       41           4
    40       52           1
    40       73           1
    40       74           4
    40       89           4
    40       96           1
    41        8           3
    41       13           0
    41       23           3
    41       24           2
    41       40           1
    41       45           1
    41       49           1
    41       60           3
    41       61           2
    41       89           2
    42       14           4
    42       21           3
    42       32           1
    42       40           3
    42       46           3
    42       59           1
    42       71           2
    42       86           4
    42       95           4
    42       99           2
    43       10           3
    43       17           0
    43       26           4
    43       37           3
    43       57           4
    43       59           1
    43       82           0
    43       83           4
    43       93           1
    43       95           0
    44        6           1
    44       22           0
    44       23           0
    44       40           2
    44       43           4
    44       50           0
    44       55           4
    44       65           0
    44       67           4
    44       85           1
    45        2           3
    45       28           0
    45       52           0
    45       53           1
    45       67           1
    45       68           3
    45       69           1
    45       76           1
    45       78           3
    45       96           1
    46        1           1
    46        2           2
    46        7           2
    46       10           1
    46       12           1
    46       20           3
    46       61           0
    46       70           4
    46       88           1
    46       99           2
    47        6           4
    47       18           1
    47       21           4
    47       36           2
    47       52           4
    47       63           4
    47       64           2
    47       65           1
    47       91           3
    47       95           2
    48        7           2
    48       23           0
    48       26           0
    48       32           1
    48       39           2
    48       56           1
    48       73           4
    48       91           1
    48       95           2
    48      100           4
    49       17           3
    49       34           2
    49       39           3
    49       60           0
    49       66           4
    49       76           1
    49       79           1
    49       80           3
    49       81           4
    49       84           4
    50        7           1
    50        8           1
    50       12           2
    50       24           4
    50       25           4
    50       42           1
    50       55           4
    50       67           4
    50       71           1
    50       72           2
    51       15           3
    51       19           1
    51       55           1
    51       56           1
    51       59           4
    51       66           0
    51       72           2
    51       89           4
    51       98           0
    51      100           1
    52       15           1
    52       42           1
    52       48           2
    52       51           0
    52       65           0
    52       68           1
    52       70           0
    52       72           1
    52       85           0
    52       95           3
    53        4           3
    53       11           2
    53       22           1
    53       27           3
    53       30           4
    53       51           3
    53       55           3
    53       72           2
    53       76           0
    53       84           4
    54        9           1
    54       12           1
    54       47           0
    54       52           4
    54       57           3
    54       60           4
    54       61           4
    54       74           0
    54       83           0
    54       87           4
    55        3           4
    55       21           2
    55       22           0
    55       25           4
    55       26           3
    55       32           4
    55       53           0
    55       76           3
    55       89           1
    55       91           0
    56        6           4
    56       19           0
    56       28           2
    56       35           4
    56       39           3
    56       56           0
    56       94           0
    56       96           3
    56       99           3
    56      100           3
    57        9           0
    57       26           4
    57       49           0
    57       50           3
    57       58           3
    57       61           1
    57       65           0
    57       81           4
    57       91           3
    57       99           1
    58        6           0
    58       11           4
    58       17           4
    58       26           3
    58       28           0
    58       31           4
    58       44           0
    58       54           3
    58       96           1
    58       99           1
    59       21           3
    59       25           0
    59       32           4
    59       37           4
    59       44           1
    59       49           1
    59       55           0
    59       57           2
    59       66           4
    59       94           2
    60        3           1
    60       51           2
    60       70           0
    60       77           0
    60       79           1
    60       81           4
    60       84           1
    60       87           1
    60       92           3
    60       93           1
    61        3           0
    61       15           2
    61       16           4
    61       34           4
    61       42           2
    61       56           0
    61       69           1
    61       74           0
    61       86           0
    61       98           4
    62       11           4
    62       17           2
    62       26           2
    62       53           0
    62       64           1
    62       65           1
    62       71           1
    62       79           0
    62       83           1
    62       94           0
    63        9           0
    63       10           3
    63       14           4
    63       19           3
    63       38           3
    63       54           1
    63       81           3
    63       86           2
    63       96           1
    63      100           2
    64        4           2
    64       13           2
    64       33           4
    64       55           1
    64       57           1
    64       60           1
    64       74           4
    64       95           3
    64       96           4
    64       99           0
    65       19           1
    65       29           2
    65       34           0
    65       38           3
    65       43           3
    65       65           0
    65       77           4
    65       84           0
    65       87           0
    65       98           4
    66       32           3
    66       34           0
    66       50           3
    66       56           3
    66       63           0
    66       67           3
    66       76           1
    66       81           3
    66       86           3
    66       97           4
    67        3           3
    67       14           1
    67       26           1
    67       29           4
    67       65           0
    67       73           4
    67       79           3
    67       83           1
    67       89           2
    67      100           3
    68       12           2
    68       19           3
    68       45           4
    68       47           2
    68       53           3
    68       75           3
    68       82           0
    68       85           4
    68       93           0
    68       98           3
    69       16           2
    69       18           1
    69       20           3
    69       29           4
    69       31           0
    69       34           3
    69       47           1
    69       77           2
    69       79           1
    69       86           2
    70       11           4
    70       19           3
    70       20           0
    70       21           3
    70       45           3
    70       46           3
    70       47           2
    70       51           3
    70       97           3
    70      100           0
    71       15           0
    71       18           3
    71       34           4
    71       38           4
    71       42           0
    71       49           1
    71       72           4
    71       78           2
    71       87           1
    71       95           2
    72        4           1
    72        9           0
    72       12           3
    72       14           3
    72       62           1
    72       63           4
    72       73           3
    72       90           3
    72       93           1
    72       96           2
    73        9           1
    73       14           0
    73       31           0
    73       40           2
    73       49           2
    73       57           1
    73       67           2
    73       70           3
    73       76           1
    73       78           3
    74        6           4
    74        7           1
    74       25           2
    74       32           0
    74       39           1
    74       58           0
    74       61           1
    74       80           4
    74       83           2
    74       86           2
    75       21           1
    75       26           3
    75       40           2
    75       42           2
    75       81           2
    75       89           0
    75       96           4
    75       98           0
    75       99           0
    75      100           0
    76        1           2
    76       13           0
    76       15           2
    76       30           3
    76       39           3
    76       44           0
    76       53           0
    76       58           0
    76       72           3
    76       94           0
    77        7           1
    77       15           2
    77       25           3
    77       29           3
    77       36           1
    77       64           3
    77       66           3
    77       67           3
    77       85           3
    77       90           0
    78       14           1
    78       19           3
    78       34           3
    78       41           1
    78       47           4
    78       59           2
    78       62           4
    78       83           2
    78       88           3
    78       92           4
    79        7           4
    79       10           0
    79       11           4
    79       31           3
    79       33           3
    79       39           2
    79       49           3
    79       61           1
    79       74           2
    79       98           1
    80        6           0
    80        9           0
    80       33           3
    80       38           0
    80       41           0
    80       47           3
    80       50           3
    80       78           0
    80       85           4
    80       91           4
    81        3           3
    81        6           2
    81       35           0
    81       46           4
    81       47           2
    81       50           3
    81       58           1
    81       83           3
    81       86           0
    81       90           1
    82        8           1
    82       12           1
    82       14           4
    82       30           0
    82       40           0
    82       43           2
    82       49           3
    82       60           1
    82       77           1
    82       83           2
    83        4           2
    83        8           0
    83       10           1
    83       20           1
    83       26           1
    83       58           2
    83       72           3
    83       84           3
    83       86           3
    83       94           2
    84       23           0
    84       24           2
    84       31           1
    84       33           3
    84       40           1
    84       42           2
    84       62           2
    84       64           3
    84       67           2
    84       79           1
    85       12           0
    85       32           3
    85       33           3
    85       56           3
    85       64           0
    85       71           3
    85       77           2
    85       79           0
    85       91           2
    85       95           3
    86        8           4
    86       27           0
    86       28           4
    86       43           4
    86       57           2
    86       66           4
    86       80           4
    86       88           3
    86       92           3
    86       95           4
    87       36           0
    87       39           3
    87       42           3
    87       43           3
    87       47           3
    87       76           4
    87       77           4
    87       92           2
    87       97           1
    87      100           2
    88       13           2
    88       15           2
    88       19           3
    88       23           0
    88       25           1
    88       38           1
    88       50           4
    88       58           3
    88       69           4
    88       75           1
    89        4           1
    89        6           0
    89       20           1
    89       30           2
    89       36           4
    89       46           2
    89       56           3
    89       58           3
    89       60           2
    89       81           4
    90        7           2
    90       20           2
    90       32           0
    90       38           2
    90       39           1
    90       50           0
    90       75           3
    90       84           1
    90       98           2
    90       99           1
    91        5           4
    91        6           1
    91       20           0
    91       37           1
    91       43           0
    91       44           3
    91       71           3
    91       82           0
    91       90           0
    91       96           2
    92        8           3
    92       32           4
    92       44           1
    92       57           0
    92       65           2
    92       67           0
    92       74           0
    92       77           3
    92       83           2
    92       84           4
    93       17           3
    93       20           0
    93       21           4
    93       22           0
    93       23           2
    93       31           2
    93       71           2
    93       86           3
    93       90           2
    93       93           2
    94       15           3
    94       20           0
    94       21           0
    94       22           1
    94       31           3
    94       33           1
    94       38           2
    94       45           2
    94       57           2
    94       97           3
    95        4           0
    95        6           2
    95       10           3
    95       22           3
    95       33           2
    95       43           1
    95       49           0
    95       76           2
    95       83           1
    95       93           4
    96        2           4
    96        7           4
    96        8           2
    96       14           4
    96       38           0
    96       45           4
    96       57           0
    96       71           4
    96       75           0
    96       82           2
    97        1           2
    97        5           3
    97       12           2
    97       17           0
    97       27           0
    97       35           1
    97       41           3
    97       68           0
    97       74           3
    97       98           4
    98        7           2
    98       12           3
    98       26           3
    98       36           4
    98       37           4
    98       38           1
    98       52           1
    98       57           4
    98       68           4
    98       89           4
    99        6           2
    99       12           0
    99       27           3
    99       28           4
    99       44           2
    99       63           3
    99       69           3
    99       73           3
    99       81           4
    99      100           2
   100       11           4
   100       13           4
   100       24           0
   100       29           0
   100       60           0
   100       62           1
   100       66           0
   100       70           4
   100       82           0
   100       93           1
